\* Problem: Unknown *\

Maximize
 obj: + 9900000 r20607_z1_d81 + 100000 r20607_z1_d20623
 + 1000000 r20604_volGoal + 2000000 r20606_volGoal
 + 3000000 r20607_volGoal

Subject To
 r_0: + r20604_volGoal + r20604_z1_r20606 <= 69.4804840636911
 r_1: + r20606_volGoal + r20606_z1_r20607 - r20604_z1_r20606
 <= 69.4804840636911
 r_2: + r20607_volGoal + r20607_z1_d20623 + r20607_z1_d81
 - r20606_z1_r20607 <= 69.4804840636911
 r_3: + r20607_z1_d81 <= 10.7136
 r_4: + r20607_z1_d20623 = 0
 r_5: + r20607_z1_d81 <= 68.44
 r_6: + r20604_volGoal = 0
 r_7: + r20606_volGoal = 0
 r_8: + r20607_volGoal = 0

End
